min: c;

c = 4.62442401259355 * u3_t10_h0 + 3.75554422682453 * u3_t10_h1 + 3.14990153042938 * u3_t4_h2 + 3.14990153042938 * u3_t10_h2 + 3.46441905938436 * u3_t4_h3 + 3.46441905938436 * u3_t10_h3 + 3.1026612220287 * u3_t4_h4 + 3.1026612220287 * u3_t10_h4 + 3.09868422918283 * u3_t4_h5 + 3.09868422918283 * u3_t10_h5 + 4.18267188465264 * u3_t4_h6 + 4.18267188465264 * u3_t10_h6 + 3.86111393247601 * u3_t4_h7 + 3.86111393247601 * u3_t9_h7 + 3.86111393247601 * u3_t10_h7 + 5.87052962457776 * u3_t4_h8 + 5.87052962457776 * u3_t9_h8 + 5.235809433592 * u3_t4_h9 + 5.235809433592 * u3_t9_h9 + 4.97907989525322 * u3_t4_h10 + 4.97907989525322 * u3_t6_h10 + 4.97907989525322 * u3_t9_h10 + 3.57248701016747 * u3_t3_h11 + 3.57248701016747 * u3_t4_h11 + 3.57248701016747 * u3_t6_h11 + 3.57248701016747 * u3_t9_h11 + 6.24284017313311 * u3_t3_h12 + 6.24284017313311 * u3_t4_h12 + 6.24284017313311 * u3_t6_h12 + 6.24284017313311 * u3_t9_h12 + 4.76998315800131 * u3_t3_h13 + 4.76998315800131 * u3_t4_h13 + 4.76998315800131 * u3_t5_h13 + 4.76998315800131 * u3_t6_h13 + 4.76998315800131 * u3_t9_h13 + 5.43005441598648 * u3_t3_h14 + 5.43005441598648 * u3_t4_h14 + 5.43005441598648 * u3_t5_h14 + 5.43005441598648 * u3_t6_h14 + 5.43005441598648 * u3_t9_h14 + 5.81205479319756 * u3_t2_h15 + 5.81205479319756 * u3_t3_h15 + 5.81205479319756 * u3_t4_h15 + 5.81205479319756 * u3_t5_h15 + 5.81205479319756 * u3_t6_h15 + 5.81205479319756 * u3_t9_h15 + 6.13515314939848 * u3_t2_h16 + 6.13515314939848 * u3_t4_h16 + 6.13515314939848 * u3_t5_h16 + 6.13515314939848 * u3_t6_h16 + 6.13515314939848 * u3_t9_h16 + 5.97549873003446 * u3_t2_h17 + 5.97549873003446 * u3_t4_h17 + 5.97549873003446 * u3_t6_h17 + 5.97549873003446 * u3_t9_h17 + 6.02633092504768 * u3_t2_h18 + 6.02633092504768 * u3_t6_h18 + 6.02633092504768 * u3_t9_h18 + 6.00557955644299 * u3_t2_h19 + 6.00557955644299 * u3_t9_h19 + 5.11340272976789 * u3_t1_h20 + 5.11340272976789 * u3_t2_h20 + 5.11340272976789 * u3_t8_h20 + 5.11340272976789 * u3_t9_h20 + 5.23624795043844 * u3_t1_h21 + 5.23624795043844 * u3_t2_h21 + 5.23624795043844 * u3_t7_h21 + 5.23624795043844 * u3_t8_h21 + 5.23624795043844 * u3_t9_h21 + 6.05538163467397 * u3_t1_h22 + 6.05538163467397 * u3_t7_h22 + 6.05538163467397 * u3_t8_h22 + 5.92183833222785 * u3_t1_h23 + 5.92183833222785 * u3_t7_h23 + 5.92183833222785 * u3_t8_h23;
0 <= u3_t1_h20 <= 1;
0 <= u3_t1_h21 <= 1;
0 <= u3_t1_h22 <= 1;
0 <= u3_t1_h23 <= 1;
u3_t1_h20 + u3_t1_h21 + u3_t1_h22 + u3_t1_h23 = 2;
0 <= u3_t2_h15 <= 1;
0 <= u3_t2_h16 <= 1;
0 <= u3_t2_h17 <= 1;
0 <= u3_t2_h18 <= 1;
0 <= u3_t2_h19 <= 1;
0 <= u3_t2_h20 <= 1;
0 <= u3_t2_h21 <= 1;
u3_t2_h15 + u3_t2_h16 + u3_t2_h17 + u3_t2_h18 + u3_t2_h19 + u3_t2_h20 + u3_t2_h21 = 3;
0 <= u3_t3_h11 <= 1;
0 <= u3_t3_h12 <= 1;
0 <= u3_t3_h13 <= 1;
0 <= u3_t3_h14 <= 1;
0 <= u3_t3_h15 <= 1;
u3_t3_h11 + u3_t3_h12 + u3_t3_h13 + u3_t3_h14 + u3_t3_h15 = 2;
0 <= u3_t4_h2 <= 1;
0 <= u3_t4_h3 <= 1;
0 <= u3_t4_h4 <= 1;
0 <= u3_t4_h5 <= 1;
0 <= u3_t4_h6 <= 1;
0 <= u3_t4_h7 <= 1;
0 <= u3_t4_h8 <= 1;
0 <= u3_t4_h9 <= 1;
0 <= u3_t4_h10 <= 1;
0 <= u3_t4_h11 <= 1;
0 <= u3_t4_h12 <= 1;
0 <= u3_t4_h13 <= 1;
0 <= u3_t4_h14 <= 1;
0 <= u3_t4_h15 <= 1;
0 <= u3_t4_h16 <= 1;
0 <= u3_t4_h17 <= 1;
u3_t4_h2 + u3_t4_h3 + u3_t4_h4 + u3_t4_h5 + u3_t4_h6 + u3_t4_h7 + u3_t4_h8 + u3_t4_h9 + u3_t4_h10 + u3_t4_h11 + u3_t4_h12 + u3_t4_h13 + u3_t4_h14 + u3_t4_h15 + u3_t4_h16 + u3_t4_h17 = 3;
0 <= u3_t5_h13 <= 1;
0 <= u3_t5_h14 <= 1;
0 <= u3_t5_h15 <= 1;
0 <= u3_t5_h16 <= 1;
u3_t5_h13 + u3_t5_h14 + u3_t5_h15 + u3_t5_h16 = 2;
0 <= u3_t6_h10 <= 1;
0 <= u3_t6_h11 <= 1;
0 <= u3_t6_h12 <= 1;
0 <= u3_t6_h13 <= 1;
0 <= u3_t6_h14 <= 1;
0 <= u3_t6_h15 <= 1;
0 <= u3_t6_h16 <= 1;
0 <= u3_t6_h17 <= 1;
0 <= u3_t6_h18 <= 1;
u3_t6_h10 + u3_t6_h11 + u3_t6_h12 + u3_t6_h13 + u3_t6_h14 + u3_t6_h15 + u3_t6_h16 + u3_t6_h17 + u3_t6_h18 = 2;
0 <= u3_t7_h21 <= 1;
0 <= u3_t7_h22 <= 1;
0 <= u3_t7_h23 <= 1;
u3_t7_h21 + u3_t7_h22 + u3_t7_h23 = 2;
0 <= u3_t8_h20 <= 1;
0 <= u3_t8_h21 <= 1;
0 <= u3_t8_h22 <= 1;
0 <= u3_t8_h23 <= 1;
u3_t8_h20 + u3_t8_h21 + u3_t8_h22 + u3_t8_h23 = 1;
0 <= u3_t9_h7 <= 1;
0 <= u3_t9_h8 <= 1;
0 <= u3_t9_h9 <= 1;
0 <= u3_t9_h10 <= 1;
0 <= u3_t9_h11 <= 1;
0 <= u3_t9_h12 <= 1;
0 <= u3_t9_h13 <= 1;
0 <= u3_t9_h14 <= 1;
0 <= u3_t9_h15 <= 1;
0 <= u3_t9_h16 <= 1;
0 <= u3_t9_h17 <= 1;
0 <= u3_t9_h18 <= 1;
0 <= u3_t9_h19 <= 1;
0 <= u3_t9_h20 <= 1;
0 <= u3_t9_h21 <= 1;
u3_t9_h7 + u3_t9_h8 + u3_t9_h9 + u3_t9_h10 + u3_t9_h11 + u3_t9_h12 + u3_t9_h13 + u3_t9_h14 + u3_t9_h15 + u3_t9_h16 + u3_t9_h17 + u3_t9_h18 + u3_t9_h19 + u3_t9_h20 + u3_t9_h21 = 2;
0 <= u3_t10_h0 <= 1;
0 <= u3_t10_h1 <= 1;
0 <= u3_t10_h2 <= 1;
0 <= u3_t10_h3 <= 1;
0 <= u3_t10_h4 <= 1;
0 <= u3_t10_h5 <= 1;
0 <= u3_t10_h6 <= 1;
0 <= u3_t10_h7 <= 1;
u3_t10_h0 + u3_t10_h1 + u3_t10_h2 + u3_t10_h3 + u3_t10_h4 + u3_t10_h5 + u3_t10_h6 + u3_t10_h7 = 3;
